; benchmark generated from python API
(set-info :status unknown)
(declare-fun cell_1_4 () Int)
(declare-fun cell_2_9 () Int)
(declare-fun cell_3_1 () Int)
(declare-fun cell_4_8 () Int)
(declare-fun cell_5_3 () Int)
(declare-fun cell_6_6 () Int)
(declare-fun cell_7_2 () Int)
(declare-fun cell_1_1 () Int)
(declare-fun cell_2_1 () Int)
(declare-fun cell_4_1 () Int)
(declare-fun cell_5_1 () Int)
(declare-fun cell_6_1 () Int)
(declare-fun cell_7_1 () Int)
(declare-fun cell_8_1 () Int)
(declare-fun cell_9_1 () Int)
(declare-fun cell_1_2 () Int)
(declare-fun cell_2_2 () Int)
(declare-fun cell_3_2 () Int)
(declare-fun cell_4_2 () Int)
(declare-fun cell_5_2 () Int)
(declare-fun cell_6_2 () Int)
(declare-fun cell_8_2 () Int)
(declare-fun cell_9_2 () Int)
(declare-fun cell_1_3 () Int)
(declare-fun cell_2_3 () Int)
(declare-fun cell_3_3 () Int)
(declare-fun cell_4_3 () Int)
(declare-fun cell_6_3 () Int)
(declare-fun cell_7_3 () Int)
(declare-fun cell_8_3 () Int)
(declare-fun cell_9_3 () Int)
(declare-fun cell_2_4 () Int)
(declare-fun cell_3_4 () Int)
(declare-fun cell_4_4 () Int)
(declare-fun cell_5_4 () Int)
(declare-fun cell_6_4 () Int)
(declare-fun cell_7_4 () Int)
(declare-fun cell_8_4 () Int)
(declare-fun cell_9_4 () Int)
(declare-fun cell_1_5 () Int)
(declare-fun cell_2_5 () Int)
(declare-fun cell_3_5 () Int)
(declare-fun cell_4_5 () Int)
(declare-fun cell_5_5 () Int)
(declare-fun cell_6_5 () Int)
(declare-fun cell_7_5 () Int)
(declare-fun cell_8_5 () Int)
(declare-fun cell_9_5 () Int)
(declare-fun cell_1_6 () Int)
(declare-fun cell_2_6 () Int)
(declare-fun cell_3_6 () Int)
(declare-fun cell_4_6 () Int)
(declare-fun cell_5_6 () Int)
(declare-fun cell_7_6 () Int)
(declare-fun cell_8_6 () Int)
(declare-fun cell_9_6 () Int)
(declare-fun cell_1_7 () Int)
(declare-fun cell_2_7 () Int)
(declare-fun cell_3_7 () Int)
(declare-fun cell_4_7 () Int)
(declare-fun cell_5_7 () Int)
(declare-fun cell_6_7 () Int)
(declare-fun cell_7_7 () Int)
(declare-fun cell_8_7 () Int)
(declare-fun cell_9_7 () Int)
(declare-fun cell_1_8 () Int)
(declare-fun cell_2_8 () Int)
(declare-fun cell_3_8 () Int)
(declare-fun cell_5_8 () Int)
(declare-fun cell_6_8 () Int)
(declare-fun cell_7_8 () Int)
(declare-fun cell_8_8 () Int)
(declare-fun cell_9_8 () Int)
(declare-fun cell_1_9 () Int)
(declare-fun cell_3_9 () Int)
(declare-fun cell_4_9 () Int)
(declare-fun cell_5_9 () Int)
(declare-fun cell_6_9 () Int)
(declare-fun cell_7_9 () Int)
(declare-fun cell_8_9 () Int)
(declare-fun cell_9_9 () Int)
(assert
 (= cell_1_4 1))
(assert
 (= cell_2_9 1))
(assert
 (= cell_3_1 1))
(assert
 (= cell_4_8 1))
(assert
 (= cell_5_3 1))
(assert
 (= cell_6_6 1))
(assert
 (= cell_7_2 1))
(assert
 (let (($x6221 (= cell_1_1 9)))
 (let (($x299 (= cell_1_1 8)))
 (let (($x3057 (= cell_1_1 7)))
 (let (($x7182 (= cell_1_1 6)))
 (let (($x3102 (= cell_1_1 5)))
 (let (($x6218 (= cell_1_1 4)))
 (let (($x4592 (= cell_1_1 3)))
 (let (($x8717 (= cell_1_1 2)))
 (let (($x7087 (= cell_1_1 1)))
 (or $x7087 $x8717 $x4592 $x6218 $x3102 $x7182 $x3057 $x299 $x6221)))))))))))
(assert
 (let (($x1772 (= cell_2_1 9)))
 (let (($x8254 (= cell_2_1 8)))
 (let (($x5609 (= cell_2_1 7)))
 (let (($x9282 (= cell_2_1 6)))
 (let (($x1500 (= cell_2_1 5)))
 (let (($x3234 (= cell_2_1 4)))
 (let (($x4506 (= cell_2_1 3)))
 (let (($x7030 (= cell_2_1 2)))
 (let (($x6000 (= cell_2_1 1)))
 (or $x6000 $x7030 $x4506 $x3234 $x1500 $x9282 $x5609 $x8254 $x1772)))))))))))
(assert
 (let (($x385 (= cell_3_1 1)))
 (or $x385 (= cell_3_1 2) (= cell_3_1 3) (= cell_3_1 4) (= cell_3_1 5) (= cell_3_1 6) (= cell_3_1 7) (= cell_3_1 8) (= cell_3_1 9))))
(assert
 (let (($x8998 (= cell_4_1 9)))
 (let (($x2429 (= cell_4_1 8)))
 (let (($x1128 (= cell_4_1 7)))
 (let (($x10207 (= cell_4_1 6)))
 (let (($x3781 (= cell_4_1 5)))
 (let (($x2077 (= cell_4_1 4)))
 (let (($x6777 (= cell_4_1 3)))
 (let (($x6324 (= cell_4_1 2)))
 (let (($x4682 (= cell_4_1 1)))
 (or $x4682 $x6324 $x6777 $x2077 $x3781 $x10207 $x1128 $x2429 $x8998)))))))))))
(assert
 (let (($x7956 (= cell_5_1 9)))
 (let (($x58 (= cell_5_1 8)))
 (let (($x8395 (= cell_5_1 7)))
 (let (($x5858 (= cell_5_1 6)))
 (let (($x5157 (= cell_5_1 5)))
 (let (($x7360 (= cell_5_1 4)))
 (let (($x4135 (= cell_5_1 3)))
 (let (($x7098 (= cell_5_1 2)))
 (let (($x3360 (= cell_5_1 1)))
 (or $x3360 $x7098 $x4135 $x7360 $x5157 $x5858 $x8395 $x58 $x7956)))))))))))
(assert
 (let (($x1700 (= cell_6_1 9)))
 (let (($x5964 (= cell_6_1 8)))
 (let (($x3732 (= cell_6_1 7)))
 (let (($x7742 (= cell_6_1 6)))
 (let (($x8379 (= cell_6_1 5)))
 (let (($x6940 (= cell_6_1 4)))
 (let (($x4261 (= cell_6_1 3)))
 (let (($x6654 (= cell_6_1 2)))
 (let (($x8096 (= cell_6_1 1)))
 (or $x8096 $x6654 $x4261 $x6940 $x8379 $x7742 $x3732 $x5964 $x1700)))))))))))
(assert
 (let (($x5229 (= cell_7_1 9)))
 (let (($x3323 (= cell_7_1 8)))
 (let (($x9303 (= cell_7_1 7)))
 (let (($x559 (= cell_7_1 6)))
 (let (($x6134 (= cell_7_1 5)))
 (let (($x7580 (= cell_7_1 4)))
 (let (($x6051 (= cell_7_1 3)))
 (let (($x1483 (= cell_7_1 2)))
 (let (($x2620 (= cell_7_1 1)))
 (or $x2620 $x1483 $x6051 $x7580 $x6134 $x559 $x9303 $x3323 $x5229)))))))))))
(assert
 (let (($x5216 (= cell_8_1 1)))
 (or $x5216 (= cell_8_1 2) (= cell_8_1 3) (= cell_8_1 4) (= cell_8_1 5) (= cell_8_1 6) (= cell_8_1 7) (= cell_8_1 8) (= cell_8_1 9))))
(assert
 (let (($x9000 (= cell_9_1 1)))
 (or $x9000 (= cell_9_1 2) (= cell_9_1 3) (= cell_9_1 4) (= cell_9_1 5) (= cell_9_1 6) (= cell_9_1 7) (= cell_9_1 8) (= cell_9_1 9))))
(assert
 (let (($x1536 (= cell_1_2 9)))
 (let (($x4653 (= cell_1_2 8)))
 (let (($x3818 (= cell_1_2 7)))
 (let (($x3906 (= cell_1_2 6)))
 (let (($x9560 (= cell_1_2 5)))
 (let (($x7498 (= cell_1_2 4)))
 (let (($x342 (= cell_1_2 3)))
 (let (($x6486 (= cell_1_2 2)))
 (let (($x8575 (= cell_1_2 1)))
 (or $x8575 $x6486 $x342 $x7498 $x9560 $x3906 $x3818 $x4653 $x1536)))))))))))
(assert
 (let (($x862 (= cell_2_2 9)))
 (let (($x2514 (= cell_2_2 8)))
 (let (($x1187 (= cell_2_2 7)))
 (let (($x2125 (= cell_2_2 6)))
 (let (($x4306 (= cell_2_2 5)))
 (let (($x10134 (= cell_2_2 4)))
 (let (($x3612 (= cell_2_2 3)))
 (let (($x6529 (= cell_2_2 2)))
 (let (($x6504 (= cell_2_2 1)))
 (or $x6504 $x6529 $x3612 $x10134 $x4306 $x2125 $x1187 $x2514 $x862)))))))))))
(assert
 (let (($x9969 (= cell_3_2 9)))
 (let (($x209 (= cell_3_2 8)))
 (let (($x3866 (= cell_3_2 7)))
 (let (($x8100 (= cell_3_2 6)))
 (let (($x4596 (= cell_3_2 5)))
 (let (($x9213 (= cell_3_2 4)))
 (let (($x9058 (= cell_3_2 3)))
 (let (($x3647 (= cell_3_2 2)))
 (let (($x7289 (= cell_3_2 1)))
 (or $x7289 $x3647 $x9058 $x9213 $x4596 $x8100 $x3866 $x209 $x9969)))))))))))
(assert
 (let (($x2901 (= cell_4_2 9)))
 (let (($x3848 (= cell_4_2 8)))
 (let (($x410 (= cell_4_2 7)))
 (let (($x9451 (= cell_4_2 6)))
 (let (($x8021 (= cell_4_2 5)))
 (let (($x761 (= cell_4_2 4)))
 (let (($x685 (= cell_4_2 3)))
 (let (($x9826 (= cell_4_2 2)))
 (let (($x6857 (= cell_4_2 1)))
 (or $x6857 $x9826 $x685 $x761 $x8021 $x9451 $x410 $x3848 $x2901)))))))))))
(assert
 (let (($x9036 (= cell_5_2 9)))
 (let (($x5067 (= cell_5_2 8)))
 (let (($x3927 (= cell_5_2 7)))
 (let (($x2931 (= cell_5_2 6)))
 (let (($x2142 (= cell_5_2 5)))
 (let (($x5212 (= cell_5_2 4)))
 (let (($x9445 (= cell_5_2 3)))
 (let (($x2868 (= cell_5_2 2)))
 (let (($x5360 (= cell_5_2 1)))
 (or $x5360 $x2868 $x9445 $x5212 $x2142 $x2931 $x3927 $x5067 $x9036)))))))))))
(assert
 (let (($x9558 (= cell_6_2 9)))
 (let (($x3718 (= cell_6_2 8)))
 (let (($x2132 (= cell_6_2 7)))
 (let (($x6302 (= cell_6_2 6)))
 (let (($x9850 (= cell_6_2 5)))
 (let (($x4802 (= cell_6_2 4)))
 (let (($x1876 (= cell_6_2 3)))
 (let (($x9143 (= cell_6_2 2)))
 (let (($x5133 (= cell_6_2 1)))
 (or $x5133 $x9143 $x1876 $x4802 $x9850 $x6302 $x2132 $x3718 $x9558)))))))))))
(assert
 (let (($x9621 (= cell_7_2 1)))
 (or $x9621 (= cell_7_2 2) (= cell_7_2 3) (= cell_7_2 4) (= cell_7_2 5) (= cell_7_2 6) (= cell_7_2 7) (= cell_7_2 8) (= cell_7_2 9))))
(assert
 (let (($x6048 (= cell_8_2 1)))
 (or $x6048 (= cell_8_2 2) (= cell_8_2 3) (= cell_8_2 4) (= cell_8_2 5) (= cell_8_2 6) (= cell_8_2 7) (= cell_8_2 8) (= cell_8_2 9))))
(assert
 (let (($x4065 (= cell_9_2 1)))
 (or $x4065 (= cell_9_2 2) (= cell_9_2 3) (= cell_9_2 4) (= cell_9_2 5) (= cell_9_2 6) (= cell_9_2 7) (= cell_9_2 8) (= cell_9_2 9))))
(assert
 (let (($x9562 (= cell_1_3 9)))
 (let (($x4064 (= cell_1_3 8)))
 (let (($x3711 (= cell_1_3 7)))
 (let (($x9612 (= cell_1_3 6)))
 (let (($x795 (= cell_1_3 5)))
 (let (($x1870 (= cell_1_3 4)))
 (let (($x1029 (= cell_1_3 3)))
 (let (($x4034 (= cell_1_3 2)))
 (let (($x2340 (= cell_1_3 1)))
 (or $x2340 $x4034 $x1029 $x1870 $x795 $x9612 $x3711 $x4064 $x9562)))))))))))
(assert
 (let (($x3597 (= cell_2_3 9)))
 (let (($x558 (= cell_2_3 8)))
 (let (($x1759 (= cell_2_3 7)))
 (let (($x1755 (= cell_2_3 6)))
 (let (($x7230 (= cell_2_3 5)))
 (let (($x6456 (= cell_2_3 4)))
 (let (($x9750 (= cell_2_3 3)))
 (let (($x9640 (= cell_2_3 2)))
 (let (($x9606 (= cell_2_3 1)))
 (or $x9606 $x9640 $x9750 $x6456 $x7230 $x1755 $x1759 $x558 $x3597)))))))))))
(assert
 (let (($x6634 (= cell_3_3 9)))
 (let (($x6546 (= cell_3_3 8)))
 (let (($x336 (= cell_3_3 7)))
 (let (($x199 (= cell_3_3 6)))
 (let (($x9211 (= cell_3_3 5)))
 (let (($x2566 (= cell_3_3 4)))
 (let (($x5845 (= cell_3_3 3)))
 (let (($x1515 (= cell_3_3 2)))
 (let (($x7643 (= cell_3_3 1)))
 (or $x7643 $x1515 $x5845 $x2566 $x9211 $x199 $x336 $x6546 $x6634)))))))))))
(assert
 (let (($x1623 (= cell_4_3 9)))
 (let (($x6903 (= cell_4_3 8)))
 (let (($x1928 (= cell_4_3 7)))
 (let (($x8090 (= cell_4_3 6)))
 (let (($x4347 (= cell_4_3 5)))
 (let (($x5787 (= cell_4_3 4)))
 (let (($x7890 (= cell_4_3 3)))
 (let (($x8655 (= cell_4_3 2)))
 (let (($x5018 (= cell_4_3 1)))
 (or $x5018 $x8655 $x7890 $x5787 $x4347 $x8090 $x1928 $x6903 $x1623)))))))))))
(assert
 (let (($x5397 (= cell_5_3 1)))
 (or $x5397 (= cell_5_3 2) (= cell_5_3 3) (= cell_5_3 4) (= cell_5_3 5) (= cell_5_3 6) (= cell_5_3 7) (= cell_5_3 8) (= cell_5_3 9))))
(assert
 (let (($x8163 (= cell_6_3 9)))
 (let (($x9613 (= cell_6_3 8)))
 (let (($x7755 (= cell_6_3 7)))
 (let (($x5003 (= cell_6_3 6)))
 (let (($x2337 (= cell_6_3 5)))
 (let (($x3592 (= cell_6_3 4)))
 (let (($x224 (= cell_6_3 3)))
 (let (($x1899 (= cell_6_3 2)))
 (let (($x4198 (= cell_6_3 1)))
 (or $x4198 $x1899 $x224 $x3592 $x2337 $x5003 $x7755 $x9613 $x8163)))))))))))
(assert
 (let (($x3430 (= cell_7_3 1)))
 (or $x3430 (= cell_7_3 2) (= cell_7_3 3) (= cell_7_3 4) (= cell_7_3 5) (= cell_7_3 6) (= cell_7_3 7) (= cell_7_3 8) (= cell_7_3 9))))
(assert
 (let (($x9199 (= cell_8_3 1)))
 (or $x9199 (= cell_8_3 2) (= cell_8_3 3) (= cell_8_3 4) (= cell_8_3 5) (= cell_8_3 6) (= cell_8_3 7) (= cell_8_3 8) (= cell_8_3 9))))
(assert
 (let (($x9476 (= cell_9_3 1)))
 (or $x9476 (= cell_9_3 2) (= cell_9_3 3) (= cell_9_3 4) (= cell_9_3 5) (= cell_9_3 6) (= cell_9_3 7) (= cell_9_3 8) (= cell_9_3 9))))
(assert
 (let (($x79 (= cell_1_4 1)))
 (or $x79 (= cell_1_4 2) (= cell_1_4 3) (= cell_1_4 4) (= cell_1_4 5) (= cell_1_4 6) (= cell_1_4 7) (= cell_1_4 8) (= cell_1_4 9))))
(assert
 (let (($x7511 (= cell_2_4 9)))
 (let (($x6197 (= cell_2_4 8)))
 (let (($x4262 (= cell_2_4 7)))
 (let (($x5247 (= cell_2_4 6)))
 (let (($x7641 (= cell_2_4 5)))
 (let (($x2594 (= cell_2_4 4)))
 (let (($x7083 (= cell_2_4 3)))
 (let (($x2140 (= cell_2_4 2)))
 (let (($x8569 (= cell_2_4 1)))
 (or $x8569 $x2140 $x7083 $x2594 $x7641 $x5247 $x4262 $x6197 $x7511)))))))))))
(assert
 (let (($x1356 (= cell_3_4 1)))
 (or $x1356 (= cell_3_4 2) (= cell_3_4 3) (= cell_3_4 4) (= cell_3_4 5) (= cell_3_4 6) (= cell_3_4 7) (= cell_3_4 8) (= cell_3_4 9))))
(assert
 (let (($x1690 (= cell_4_4 9)))
 (let (($x1788 (= cell_4_4 8)))
 (let (($x7819 (= cell_4_4 7)))
 (let (($x4917 (= cell_4_4 6)))
 (let (($x30 (= cell_4_4 5)))
 (let (($x2139 (= cell_4_4 4)))
 (let (($x734 (= cell_4_4 3)))
 (let (($x8452 (= cell_4_4 2)))
 (let (($x1042 (= cell_4_4 1)))
 (or $x1042 $x8452 $x734 $x2139 $x30 $x4917 $x7819 $x1788 $x1690)))))))))))
(assert
 (let (($x6078 (= cell_5_4 9)))
 (let (($x8298 (= cell_5_4 8)))
 (let (($x3041 (= cell_5_4 7)))
 (let (($x1257 (= cell_5_4 6)))
 (let (($x6860 (= cell_5_4 5)))
 (let (($x8061 (= cell_5_4 4)))
 (let (($x5329 (= cell_5_4 3)))
 (let (($x2039 (= cell_5_4 2)))
 (let (($x1178 (= cell_5_4 1)))
 (or $x1178 $x2039 $x5329 $x8061 $x6860 $x1257 $x3041 $x8298 $x6078)))))))))))
(assert
 (let (($x3691 (= cell_6_4 9)))
 (let (($x4764 (= cell_6_4 8)))
 (let (($x9095 (= cell_6_4 7)))
 (let (($x5261 (= cell_6_4 6)))
 (let (($x4002 (= cell_6_4 5)))
 (let (($x1559 (= cell_6_4 4)))
 (let (($x3938 (= cell_6_4 3)))
 (let (($x3608 (= cell_6_4 2)))
 (let (($x7933 (= cell_6_4 1)))
 (or $x7933 $x3608 $x3938 $x1559 $x4002 $x5261 $x9095 $x4764 $x3691)))))))))))
(assert
 (let (($x7468 (= cell_7_4 1)))
 (or $x7468 (= cell_7_4 2) (= cell_7_4 3) (= cell_7_4 4) (= cell_7_4 5) (= cell_7_4 6) (= cell_7_4 7) (= cell_7_4 8) (= cell_7_4 9))))
(assert
 (let (($x9136 (= cell_8_4 1)))
 (or $x9136 (= cell_8_4 2) (= cell_8_4 3) (= cell_8_4 4) (= cell_8_4 5) (= cell_8_4 6) (= cell_8_4 7) (= cell_8_4 8) (= cell_8_4 9))))
(assert
 (let (($x8536 (= cell_9_4 1)))
 (or $x8536 (= cell_9_4 2) (= cell_9_4 3) (= cell_9_4 4) (= cell_9_4 5) (= cell_9_4 6) (= cell_9_4 7) (= cell_9_4 8) (= cell_9_4 9))))
(assert
 (let (($x9801 (= cell_1_5 9)))
 (let (($x9518 (= cell_1_5 8)))
 (let (($x1061 (= cell_1_5 7)))
 (let (($x8313 (= cell_1_5 6)))
 (let (($x2103 (= cell_1_5 5)))
 (let (($x8598 (= cell_1_5 4)))
 (let (($x4381 (= cell_1_5 3)))
 (let (($x1527 (= cell_1_5 2)))
 (let (($x7425 (= cell_1_5 1)))
 (or $x7425 $x1527 $x4381 $x8598 $x2103 $x8313 $x1061 $x9518 $x9801)))))))))))
(assert
 (let (($x6024 (= cell_2_5 9)))
 (let (($x9890 (= cell_2_5 8)))
 (let (($x1898 (= cell_2_5 7)))
 (let (($x5952 (= cell_2_5 6)))
 (let (($x6745 (= cell_2_5 5)))
 (let (($x3385 (= cell_2_5 4)))
 (let (($x9638 (= cell_2_5 3)))
 (let (($x7334 (= cell_2_5 2)))
 (let (($x6287 (= cell_2_5 1)))
 (or $x6287 $x7334 $x9638 $x3385 $x6745 $x5952 $x1898 $x9890 $x6024)))))))))))
(assert
 (let (($x1315 (= cell_3_5 1)))
 (or $x1315 (= cell_3_5 2) (= cell_3_5 3) (= cell_3_5 4) (= cell_3_5 5) (= cell_3_5 6) (= cell_3_5 7) (= cell_3_5 8) (= cell_3_5 9))))
(assert
 (let (($x3688 (= cell_4_5 9)))
 (let (($x8469 (= cell_4_5 8)))
 (let (($x6196 (= cell_4_5 7)))
 (let (($x6451 (= cell_4_5 6)))
 (let (($x8834 (= cell_4_5 5)))
 (let (($x6686 (= cell_4_5 4)))
 (let (($x5893 (= cell_4_5 3)))
 (let (($x7715 (= cell_4_5 2)))
 (let (($x3886 (= cell_4_5 1)))
 (or $x3886 $x7715 $x5893 $x6686 $x8834 $x6451 $x6196 $x8469 $x3688)))))))))))
(assert
 (let (($x1312 (= cell_5_5 9)))
 (let (($x1451 (= cell_5_5 8)))
 (let (($x1099 (= cell_5_5 7)))
 (let (($x2579 (= cell_5_5 6)))
 (let (($x3020 (= cell_5_5 5)))
 (let (($x3954 (= cell_5_5 4)))
 (let (($x9522 (= cell_5_5 3)))
 (let (($x2094 (= cell_5_5 2)))
 (let (($x8098 (= cell_5_5 1)))
 (or $x8098 $x2094 $x9522 $x3954 $x3020 $x2579 $x1099 $x1451 $x1312)))))))))))
(assert
 (let (($x7887 (= cell_6_5 9)))
 (let (($x921 (= cell_6_5 8)))
 (let (($x9683 (= cell_6_5 7)))
 (let (($x732 (= cell_6_5 6)))
 (let (($x2473 (= cell_6_5 5)))
 (let (($x1566 (= cell_6_5 4)))
 (let (($x8914 (= cell_6_5 3)))
 (let (($x5480 (= cell_6_5 2)))
 (let (($x1758 (= cell_6_5 1)))
 (or $x1758 $x5480 $x8914 $x1566 $x2473 $x732 $x9683 $x921 $x7887)))))))))))
(assert
 (let (($x4584 (= cell_7_5 1)))
 (or $x4584 (= cell_7_5 2) (= cell_7_5 3) (= cell_7_5 4) (= cell_7_5 5) (= cell_7_5 6) (= cell_7_5 7) (= cell_7_5 8) (= cell_7_5 9))))
(assert
 (or (= cell_8_5 1) (= cell_8_5 2) (= cell_8_5 3) (= cell_8_5 4) (= cell_8_5 5) (= cell_8_5 6) (= cell_8_5 7) (= cell_8_5 8) (= cell_8_5 9)))
(assert
 (or (= cell_9_5 1) (= cell_9_5 2) (= cell_9_5 3) (= cell_9_5 4) (= cell_9_5 5) (= cell_9_5 6) (= cell_9_5 7) (= cell_9_5 8) (= cell_9_5 9)))
(assert
 (let (($x3819 (= cell_1_6 9)))
 (let (($x990 (= cell_1_6 8)))
 (let (($x3748 (= cell_1_6 7)))
 (let (($x7739 (= cell_1_6 6)))
 (let (($x9972 (= cell_1_6 5)))
 (let (($x552 (= cell_1_6 4)))
 (let (($x8210 (= cell_1_6 3)))
 (let (($x5739 (= cell_1_6 2)))
 (let (($x1300 (= cell_1_6 1)))
 (or $x1300 $x5739 $x8210 $x552 $x9972 $x7739 $x3748 $x990 $x3819)))))))))))
(assert
 (let (($x278 (= cell_2_6 9)))
 (let (($x1273 (= cell_2_6 8)))
 (let (($x513 (= cell_2_6 7)))
 (let (($x5871 (= cell_2_6 6)))
 (let (($x9328 (= cell_2_6 5)))
 (let (($x7222 (= cell_2_6 4)))
 (let (($x1516 (= cell_2_6 3)))
 (let (($x3700 (= cell_2_6 2)))
 (let (($x6720 (= cell_2_6 1)))
 (or $x6720 $x3700 $x1516 $x7222 $x9328 $x5871 $x513 $x1273 $x278)))))))))))
(assert
 (let (($x1762 (= cell_3_6 9)))
 (let (($x10060 (= cell_3_6 8)))
 (let (($x8307 (= cell_3_6 7)))
 (let (($x3919 (= cell_3_6 6)))
 (let (($x7803 (= cell_3_6 5)))
 (let (($x8741 (= cell_3_6 4)))
 (let (($x851 (= cell_3_6 3)))
 (let (($x3034 (= cell_3_6 2)))
 (let (($x8027 (= cell_3_6 1)))
 (or $x8027 $x3034 $x851 $x8741 $x7803 $x3919 $x8307 $x10060 $x1762)))))))))))
(assert
 (let (($x1025 (= cell_4_6 9)))
 (let (($x5831 (= cell_4_6 8)))
 (let (($x10149 (= cell_4_6 7)))
 (let (($x5593 (= cell_4_6 6)))
 (let (($x6057 (= cell_4_6 5)))
 (let (($x769 (= cell_4_6 4)))
 (let (($x8289 (= cell_4_6 3)))
 (let (($x2651 (= cell_4_6 2)))
 (let (($x3408 (= cell_4_6 1)))
 (or $x3408 $x2651 $x8289 $x769 $x6057 $x5593 $x10149 $x5831 $x1025)))))))))))
(assert
 (let (($x5855 (= cell_5_6 9)))
 (let (($x9391 (= cell_5_6 8)))
 (let (($x4965 (= cell_5_6 7)))
 (let (($x1638 (= cell_5_6 6)))
 (let (($x4611 (= cell_5_6 5)))
 (let (($x7378 (= cell_5_6 4)))
 (let (($x3026 (= cell_5_6 3)))
 (let (($x7218 (= cell_5_6 2)))
 (let (($x1913 (= cell_5_6 1)))
 (or $x1913 $x7218 $x3026 $x7378 $x4611 $x1638 $x4965 $x9391 $x5855)))))))))))
(assert
 (let (($x6819 (= cell_6_6 1)))
 (or $x6819 (= cell_6_6 2) (= cell_6_6 3) (= cell_6_6 4) (= cell_6_6 5) (= cell_6_6 6) (= cell_6_6 7) (= cell_6_6 8) (= cell_6_6 9))))
(assert
 (let (($x7452 (= cell_7_6 1)))
 (or $x7452 (= cell_7_6 2) (= cell_7_6 3) (= cell_7_6 4) (= cell_7_6 5) (= cell_7_6 6) (= cell_7_6 7) (= cell_7_6 8) (= cell_7_6 9))))
(assert
 (let (($x5160 (= cell_8_6 1)))
 (or $x5160 (= cell_8_6 2) (= cell_8_6 3) (= cell_8_6 4) (= cell_8_6 5) (= cell_8_6 6) (= cell_8_6 7) (= cell_8_6 8) (= cell_8_6 9))))
(assert
 (let (($x2058 (= cell_9_6 1)))
 (or $x2058 (= cell_9_6 2) (= cell_9_6 3) (= cell_9_6 4) (= cell_9_6 5) (= cell_9_6 6) (= cell_9_6 7) (= cell_9_6 8) (= cell_9_6 9))))
(assert
 (let (($x2717 (= cell_1_7 9)))
 (let (($x4693 (= cell_1_7 8)))
 (let (($x514 (= cell_1_7 7)))
 (let (($x8065 (= cell_1_7 6)))
 (let (($x7072 (= cell_1_7 5)))
 (let (($x7760 (= cell_1_7 4)))
 (let (($x1618 (= cell_1_7 3)))
 (let (($x3538 (= cell_1_7 2)))
 (let (($x6917 (= cell_1_7 1)))
 (or $x6917 $x3538 $x1618 $x7760 $x7072 $x8065 $x514 $x4693 $x2717)))))))))))
(assert
 (let (($x2157 (= cell_2_7 9)))
 (let (($x9550 (= cell_2_7 8)))
 (let (($x3864 (= cell_2_7 7)))
 (let (($x7666 (= cell_2_7 6)))
 (let (($x4763 (= cell_2_7 5)))
 (let (($x8585 (= cell_2_7 4)))
 (let (($x7725 (= cell_2_7 3)))
 (let (($x7913 (= cell_2_7 2)))
 (let (($x8365 (= cell_2_7 1)))
 (or $x8365 $x7913 $x7725 $x8585 $x4763 $x7666 $x3864 $x9550 $x2157)))))))))))
(assert
 (let (($x1046 (= cell_3_7 9)))
 (let (($x3112 (= cell_3_7 8)))
 (let (($x7376 (= cell_3_7 7)))
 (let (($x1866 (= cell_3_7 6)))
 (let (($x2973 (= cell_3_7 5)))
 (let (($x7195 (= cell_3_7 4)))
 (let (($x6242 (= cell_3_7 3)))
 (let (($x394 (= cell_3_7 2)))
 (let (($x5068 (= cell_3_7 1)))
 (or $x5068 $x394 $x6242 $x7195 $x2973 $x1866 $x7376 $x3112 $x1046)))))))))))
(assert
 (let (($x8046 (= cell_4_7 9)))
 (let (($x9297 (= cell_4_7 8)))
 (let (($x6514 (= cell_4_7 7)))
 (let (($x972 (= cell_4_7 6)))
 (let (($x6407 (= cell_4_7 5)))
 (let (($x8856 (= cell_4_7 4)))
 (let (($x6913 (= cell_4_7 3)))
 (let (($x2648 (= cell_4_7 2)))
 (let (($x3695 (= cell_4_7 1)))
 (or $x3695 $x2648 $x6913 $x8856 $x6407 $x972 $x6514 $x9297 $x8046)))))))))))
(assert
 (let (($x2893 (= cell_5_7 1)))
 (or $x2893 (= cell_5_7 2) (= cell_5_7 3) (= cell_5_7 4) (= cell_5_7 5) (= cell_5_7 6) (= cell_5_7 7) (= cell_5_7 8) (= cell_5_7 9))))
(assert
 (let (($x1368 (= cell_6_7 1)))
 (or $x1368 (= cell_6_7 2) (= cell_6_7 3) (= cell_6_7 4) (= cell_6_7 5) (= cell_6_7 6) (= cell_6_7 7) (= cell_6_7 8) (= cell_6_7 9))))
(assert
 (let (($x6542 (= cell_7_7 1)))
 (or $x6542 (= cell_7_7 2) (= cell_7_7 3) (= cell_7_7 4) (= cell_7_7 5) (= cell_7_7 6) (= cell_7_7 7) (= cell_7_7 8) (= cell_7_7 9))))
(assert
 (let (($x2676 (= cell_8_7 1)))
 (or $x2676 (= cell_8_7 2) (= cell_8_7 3) (= cell_8_7 4) (= cell_8_7 5) (= cell_8_7 6) (= cell_8_7 7) (= cell_8_7 8) (= cell_8_7 9))))
(assert
 (or (= cell_9_7 1) (= cell_9_7 2) (= cell_9_7 3) (= cell_9_7 4) (= cell_9_7 5) (= cell_9_7 6) (= cell_9_7 7) (= cell_9_7 8) (= cell_9_7 9)))
(assert
 (let (($x6598 (= cell_1_8 9)))
 (let (($x9372 (= cell_1_8 8)))
 (let (($x9204 (= cell_1_8 7)))
 (let (($x6735 (= cell_1_8 6)))
 (let (($x4372 (= cell_1_8 5)))
 (let (($x3282 (= cell_1_8 4)))
 (let (($x7258 (= cell_1_8 3)))
 (let (($x8820 (= cell_1_8 2)))
 (let (($x8913 (= cell_1_8 1)))
 (or $x8913 $x8820 $x7258 $x3282 $x4372 $x6735 $x9204 $x9372 $x6598)))))))))))
(assert
 (let (($x2278 (= cell_2_8 9)))
 (let (($x3742 (= cell_2_8 8)))
 (let (($x5631 (= cell_2_8 7)))
 (let (($x613 (= cell_2_8 6)))
 (let (($x10055 (= cell_2_8 5)))
 (let (($x8396 (= cell_2_8 4)))
 (let (($x4552 (= cell_2_8 3)))
 (let (($x6922 (= cell_2_8 2)))
 (let (($x3761 (= cell_2_8 1)))
 (or $x3761 $x6922 $x4552 $x8396 $x10055 $x613 $x5631 $x3742 $x2278)))))))))))
(assert
 (let (($x6265 (= cell_3_8 9)))
 (let (($x3436 (= cell_3_8 8)))
 (let (($x6938 (= cell_3_8 7)))
 (let (($x2363 (= cell_3_8 6)))
 (let (($x462 (= cell_3_8 5)))
 (let (($x6140 (= cell_3_8 4)))
 (let (($x7153 (= cell_3_8 3)))
 (let (($x9144 (= cell_3_8 2)))
 (let (($x8466 (= cell_3_8 1)))
 (or $x8466 $x9144 $x7153 $x6140 $x462 $x2363 $x6938 $x3436 $x6265)))))))))))
(assert
 (let (($x3746 (= cell_4_8 1)))
 (or $x3746 (= cell_4_8 2) (= cell_4_8 3) (= cell_4_8 4) (= cell_4_8 5) (= cell_4_8 6) (= cell_4_8 7) (= cell_4_8 8) (= cell_4_8 9))))
(assert
 (let (($x7808 (= cell_5_8 1)))
 (or $x7808 (= cell_5_8 2) (= cell_5_8 3) (= cell_5_8 4) (= cell_5_8 5) (= cell_5_8 6) (= cell_5_8 7) (= cell_5_8 8) (= cell_5_8 9))))
(assert
 (let (($x1252 (= cell_6_8 1)))
 (or $x1252 (= cell_6_8 2) (= cell_6_8 3) (= cell_6_8 4) (= cell_6_8 5) (= cell_6_8 6) (= cell_6_8 7) (= cell_6_8 8) (= cell_6_8 9))))
(assert
 (let (($x956 (= cell_7_8 1)))
 (or $x956 (= cell_7_8 2) (= cell_7_8 3) (= cell_7_8 4) (= cell_7_8 5) (= cell_7_8 6) (= cell_7_8 7) (= cell_7_8 8) (= cell_7_8 9))))
(assert
 (let (($x7130 (= cell_8_8 1)))
 (or $x7130 (= cell_8_8 2) (= cell_8_8 3) (= cell_8_8 4) (= cell_8_8 5) (= cell_8_8 6) (= cell_8_8 7) (= cell_8_8 8) (= cell_8_8 9))))
(assert
 (let (($x34 (= cell_9_8 1)))
 (or $x34 (= cell_9_8 2) (= cell_9_8 3) (= cell_9_8 4) (= cell_9_8 5) (= cell_9_8 6) (= cell_9_8 7) (= cell_9_8 8) (= cell_9_8 9))))
(assert
 (let (($x417 (= cell_1_9 9)))
 (let (($x218 (= cell_1_9 8)))
 (let (($x747 (= cell_1_9 7)))
 (let (($x2866 (= cell_1_9 6)))
 (let (($x3454 (= cell_1_9 5)))
 (let (($x3371 (= cell_1_9 4)))
 (let (($x5084 (= cell_1_9 3)))
 (let (($x9516 (= cell_1_9 2)))
 (let (($x1562 (= cell_1_9 1)))
 (or $x1562 $x9516 $x5084 $x3371 $x3454 $x2866 $x747 $x218 $x417)))))))))))
(assert
 (let (($x8602 (= cell_2_9 1)))
 (or $x8602 (= cell_2_9 2) (= cell_2_9 3) (= cell_2_9 4) (= cell_2_9 5) (= cell_2_9 6) (= cell_2_9 7) (= cell_2_9 8) (= cell_2_9 9))))
(assert
 (let (($x10114 (= cell_3_9 1)))
 (or $x10114 (= cell_3_9 2) (= cell_3_9 3) (= cell_3_9 4) (= cell_3_9 5) (= cell_3_9 6) (= cell_3_9 7) (= cell_3_9 8) (= cell_3_9 9))))
(assert
 (let (($x8236 (= cell_4_9 1)))
 (or $x8236 (= cell_4_9 2) (= cell_4_9 3) (= cell_4_9 4) (= cell_4_9 5) (= cell_4_9 6) (= cell_4_9 7) (= cell_4_9 8) (= cell_4_9 9))))
(assert
 (let (($x2673 (= cell_5_9 1)))
 (or $x2673 (= cell_5_9 2) (= cell_5_9 3) (= cell_5_9 4) (= cell_5_9 5) (= cell_5_9 6) (= cell_5_9 7) (= cell_5_9 8) (= cell_5_9 9))))
(assert
 (let (($x3386 (= cell_6_9 1)))
 (or $x3386 (= cell_6_9 2) (= cell_6_9 3) (= cell_6_9 4) (= cell_6_9 5) (= cell_6_9 6) (= cell_6_9 7) (= cell_6_9 8) (= cell_6_9 9))))
(assert
 (let (($x9142 (= cell_7_9 1)))
 (or $x9142 (= cell_7_9 2) (= cell_7_9 3) (= cell_7_9 4) (= cell_7_9 5) (= cell_7_9 6) (= cell_7_9 7) (= cell_7_9 8) (= cell_7_9 9))))
(assert
 (let (($x4428 (= cell_8_9 1)))
 (or $x4428 (= cell_8_9 2) (= cell_8_9 3) (= cell_8_9 4) (= cell_8_9 5) (= cell_8_9 6) (= cell_8_9 7) (= cell_8_9 8) (= cell_8_9 9))))
(assert
 (let (($x6991 (= cell_9_9 1)))
 (or $x6991 (= cell_9_9 2) (= cell_9_9 3) (= cell_9_9 4) (= cell_9_9 5) (= cell_9_9 6) (= cell_9_9 7) (= cell_9_9 8) (= cell_9_9 9))))
(assert
 (and (distinct cell_1_1 cell_1_2 cell_1_3 cell_1_4 cell_1_5 cell_1_6 cell_1_7 cell_1_8 cell_1_9) true))
(assert
 (and (distinct cell_2_1 cell_2_2 cell_2_3 cell_2_4 cell_2_5 cell_2_6 cell_2_7 cell_2_8 cell_2_9) true))
(assert
 (and (distinct cell_3_1 cell_3_2 cell_3_3 cell_3_4 cell_3_5 cell_3_6 cell_3_7 cell_3_8 cell_3_9) true))
(assert
 (and (distinct cell_4_1 cell_4_2 cell_4_3 cell_4_4 cell_4_5 cell_4_6 cell_4_7 cell_4_8 cell_4_9) true))
(assert
 (and (distinct cell_5_1 cell_5_2 cell_5_3 cell_5_4 cell_5_5 cell_5_6 cell_5_7 cell_5_8 cell_5_9) true))
(assert
 (and (distinct cell_6_1 cell_6_2 cell_6_3 cell_6_4 cell_6_5 cell_6_6 cell_6_7 cell_6_8 cell_6_9) true))
(assert
 (and (distinct cell_7_1 cell_7_2 cell_7_3 cell_7_4 cell_7_5 cell_7_6 cell_7_7 cell_7_8 cell_7_9) true))
(assert
 (and (distinct cell_8_1 cell_8_2 cell_8_3 cell_8_4 cell_8_5 cell_8_6 cell_8_7 cell_8_8 cell_8_9) true))
(assert
 (and (distinct cell_9_1 cell_9_2 cell_9_3 cell_9_4 cell_9_5 cell_9_6 cell_9_7 cell_9_8 cell_9_9) true))
(assert
 (and (distinct cell_1_1 cell_2_1 cell_3_1 cell_4_1 cell_5_1 cell_6_1 cell_7_1 cell_8_1 cell_9_1) true))
(assert
 (and (distinct cell_1_2 cell_2_2 cell_3_2 cell_4_2 cell_5_2 cell_6_2 cell_7_2 cell_8_2 cell_9_2) true))
(assert
 (and (distinct cell_1_3 cell_2_3 cell_3_3 cell_4_3 cell_5_3 cell_6_3 cell_7_3 cell_8_3 cell_9_3) true))
(assert
 (and (distinct cell_1_4 cell_2_4 cell_3_4 cell_4_4 cell_5_4 cell_6_4 cell_7_4 cell_8_4 cell_9_4) true))
(assert
 (and (distinct cell_1_5 cell_2_5 cell_3_5 cell_4_5 cell_5_5 cell_6_5 cell_7_5 cell_8_5 cell_9_5) true))
(assert
 (and (distinct cell_1_6 cell_2_6 cell_3_6 cell_4_6 cell_5_6 cell_6_6 cell_7_6 cell_8_6 cell_9_6) true))
(assert
 (and (distinct cell_1_7 cell_2_7 cell_3_7 cell_4_7 cell_5_7 cell_6_7 cell_7_7 cell_8_7 cell_9_7) true))
(assert
 (and (distinct cell_1_8 cell_2_8 cell_3_8 cell_4_8 cell_5_8 cell_6_8 cell_7_8 cell_8_8 cell_9_8) true))
(assert
 (and (distinct cell_1_9 cell_2_9 cell_3_9 cell_4_9 cell_5_9 cell_6_9 cell_7_9 cell_8_9 cell_9_9) true))
(assert
 (and (distinct cell_1_1 cell_1_2 cell_1_3 cell_2_1 cell_2_2 cell_2_3 cell_3_1 cell_3_2 cell_3_3) true))
(assert
 (and (distinct cell_1_4 cell_1_5 cell_1_6 cell_2_4 cell_2_5 cell_2_6 cell_3_4 cell_3_5 cell_3_6) true))
(assert
 (and (distinct cell_1_7 cell_1_8 cell_1_9 cell_2_7 cell_2_8 cell_2_9 cell_3_7 cell_3_8 cell_3_9) true))
(assert
 (and (distinct cell_4_1 cell_4_2 cell_4_3 cell_5_1 cell_5_2 cell_5_3 cell_6_1 cell_6_2 cell_6_3) true))
(assert
 (and (distinct cell_4_4 cell_4_5 cell_4_6 cell_5_4 cell_5_5 cell_5_6 cell_6_4 cell_6_5 cell_6_6) true))
(assert
 (and (distinct cell_4_7 cell_4_8 cell_4_9 cell_5_7 cell_5_8 cell_5_9 cell_6_7 cell_6_8 cell_6_9) true))
(assert
 (and (distinct cell_7_1 cell_7_2 cell_7_3 cell_8_1 cell_8_2 cell_8_3 cell_9_1 cell_9_2 cell_9_3) true))
(assert
 (and (distinct cell_7_4 cell_7_5 cell_7_6 cell_8_4 cell_8_5 cell_8_6 cell_9_4 cell_9_5 cell_9_6) true))
(assert
 (and (distinct cell_7_7 cell_7_8 cell_7_9 cell_8_7 cell_8_8 cell_8_9 cell_9_7 cell_9_8 cell_9_9) true))
(assert
 (let (($x2880 (and (distinct cell_5_9 cell_6_8 cell_7_7 cell_8_6) true)))
 (let (($x2927 (and (distinct cell_2_9 cell_3_8 cell_4_7 cell_5_6 cell_6_5 cell_7_4 cell_8_3 cell_9_2) true)))
 (let (($x8857 (and (distinct cell_1_8 cell_2_7 cell_3_6 cell_4_5 cell_5_4 cell_6_3 cell_7_2 cell_8_1) true)))
 (let (($x975 (and (distinct cell_1_5 cell_2_4 cell_3_3 cell_4_2) true)))
 (let (($x2780 (and (distinct cell_5_1 cell_6_2 cell_7_3 cell_8_4) true)))
 (let (($x348 (and (distinct cell_2_1 cell_3_2 cell_4_3 cell_5_4 cell_6_5 cell_7_6 cell_8_7 cell_9_8) true)))
 (let (($x293 (and (distinct cell_1_2 cell_2_3 cell_3_4 cell_4_5 cell_5_6 cell_6_7 cell_7_8 cell_8_9) true)))
 (let (($x1345 (and (distinct cell_1_5 cell_2_6 cell_3_7 cell_4_8) true)))
 (and $x1345 $x293 $x348 $x2780 $x975 $x8857 $x2927 $x2880))))))))))
(assert
 (= cell_8_7 1))
(check-sat)
